\ This file has been generated by DOcplex
\ ENCODING=ISO-8859-1
\Problem name: random_problem.lp

Minimize
 obj: - 5 x0 + 9 x1 + 8 x2 - 3 x3 + 4 x4 - 4 x5 - 10 x6 - 6 x7 + 2 x8 - 4 x9
      - 9 x10 - x11 - x12 - 4 x13 - 10 x14 - 7 x15 - 5 x16 + 4 x17 + 4 x18
      - 9 x19 - 9 x20 - 9 x21 + [ - 18 x0*x1 + 4 x0*x2 - 8 x0*x4 - 18 x0*x7
      + 18 x0*x8 - 18 x0*x9 + 2 x0*x12 + 4 x0*x13 - 18 x0*x20 + 12 x0*x21
      + 16 x1*x2 + 14 x1*x4 + 16 x1*x6 + 4 x1*x8 + 2 x1*x9 + 6 x1*x11 + 4 x1*x12
      + 4 x1*x15 + 4 x1*x19 - 4 x2*x4 + 12 x2*x8 - 14 x2*x11 - 2 x2*x13
      + 20 x2*x14 - 16 x2*x16 + 14 x2*x17 + 10 x2*x21 + 14 x3*x5 + 10 x3*x7
      + 20 x3*x8 + 16 x3*x9 - 2 x3*x11 + 6 x3*x12 - 2 x3*x16 - 4 x3*x17
      - 14 x3*x19 - 18 x3*x20 - 4 x4*x10 - 10 x4*x11 - 16 x4*x12 + 12 x4*x15
      - 20 x4*x16 + 20 x4*x17 + 2 x4*x18 + 16 x5*x6 + 2 x5*x7 + 2 x5*x8
      - 20 x5*x11 + 20 x5*x13 - 16 x5*x17 + 10 x5*x18 + 12 x5*x20 - 12 x5*x21
      + 4 x6*x9 - 18 x6*x10 + 20 x6*x13 + 6 x6*x15 - 2 x6*x16 - 10 x6*x19
      + 4 x6*x20 + 4 x6*x21 + 18 x7*x9 + 2 x7*x14 - 12 x7*x17 + 12 x7*x18
      - 2 x7*x19 + 4 x7*x20 - 20 x7*x21 - 14 x8*x10 + 18 x8*x12 - 14 x8*x13
      + 18 x8*x16 + 16 x8*x19 - 20 x9*x10 - 12 x9*x11 - 18 x9*x15 - 10 x9*x18
      - 6 x9*x20 + 4 x10*x13 - 16 x10*x14 - 18 x10*x15 + 12 x10*x18 - 16 x10*x19
      + 10 x10*x21 - 10 x11*x12 + 4 x11*x15 - 10 x11*x19 + 2 x11*x20
      + 12 x12*x14 + 16 x12*x15 - 14 x12*x16 - 2 x12*x20 - 20 x13*x16
      + 18 x13*x17 + 2 x13*x18 + 14 x13*x20 - 14 x14*x15 - 12 x14*x16
      - 4 x14*x17 + 10 x14*x18 - 12 x14*x19 - 8 x14*x21 + 20 x15*x17
      - 14 x15*x21 - 12 x16*x19 - 20 x16*x21 - 6 x17*x19 - 14 x17*x20
      - 4 x18*x21 ]/2
Subject To
 c0: 2 x1 - x2 - x3 - x6 + x11 + 2 x12 - x13 + 2 x14 - x18 + 2 x20 = 0
 c1: - x1 + x2 - x6 + 2 x8 + 2 x9 - 2 x11 - 2 x12 - 2 x16 + 2 x18 - 2 x19 = -1
 c2: - 2 x0 + 2 x1 - 2 x4 + x11 - x12 + 2 x14 + 2 x16 + x17 - x18 - x21 = -1
 c3: - 2 x2 + x5 + x6 - x7 - 2 x8 - x10 - 2 x12 - x14 - x15 + 2 x16 = -2

Bounds
 0 <= x0 <= 1
 0 <= x1 <= 1
 0 <= x2 <= 1
 0 <= x3 <= 1
 0 <= x4 <= 1
 0 <= x5 <= 1
 0 <= x6 <= 1
 0 <= x7 <= 1
 0 <= x8 <= 1
 0 <= x9 <= 1
 0 <= x10 <= 1
 0 <= x11 <= 1
 0 <= x12 <= 1
 0 <= x13 <= 1
 0 <= x14 <= 1
 0 <= x15 <= 1
 0 <= x16 <= 1
 0 <= x17 <= 1
 0 <= x18 <= 1
 0 <= x19 <= 1
 0 <= x20 <= 1
 0 <= x21 <= 1

Binaries
 x0 x1 x2 x3 x4 x5 x6 x7 x8 x9 x10 x11 x12 x13 x14 x15 x16 x17 x18 x19 x20 x21
End
